Problem:    Maximiza
Rows:       4
Columns:    2
Non-zeros:  6
Status:     OPTIMAL
Objective:  Lucro = 46.00010667 (MAXimum)

   No.   Row name   St   Activity     Lower bound   Upper bound    Marginal
------ ------------ -- ------------- ------------- ------------- -------------
     1 Demanda1     B        2.00001                           4 
     2 Demanda2     NU             6                           6      0.555573 
     3 Tempo        NU             8                           8       5.33333 
     4 Lucro        B        46.0001                             

   No. Column name  St   Activity     Lower bound   Upper bound    Marginal
------ ------------ -- ------------- ------------- ------------- -------------
     1 V_Grande     B        2.00001             0               
     2 V_Pequeno    B              6             0               

Karush-Kuhn-Tucker optimality conditions:

KKT.PE: max.abs.err = 0.00e+00 on row 0
        max.rel.err = 0.00e+00 on row 0
        High quality

KKT.PB: max.abs.err = 0.00e+00 on row 0
        max.rel.err = 0.00e+00 on row 0
        High quality

KKT.DE: max.abs.err = 0.00e+00 on column 0
        max.rel.err = 0.00e+00 on column 0
        High quality

KKT.DB: max.abs.err = 0.00e+00 on row 0
        max.rel.err = 0.00e+00 on row 0
        High quality

End of output
